/*********************************************
 * OPL 22.1.1.0 Data
 * Author: tomit
 * Creation Date: 17 jul. 2023 at 21:01:34
 *********************************************/

n = 2;
m = 3;

// Distance between sensors
D = [
    [0, 1, 2],
    [1, 0, 3],
    [2, 3, 0]
];

// Load consumed (to recharge) at sensor i
L = [0, 3, 4];

// Drone capacity
K = [3, 4];

// Maximum travel distance of drone i
R = [100, 100];

// Sensor priorities
P = [0, 1, 1];